
(set-logic HORN)
(define-fun Z_1247 () Int 0)
(define-fun S_306 ((x Int)) Int (+ x 1))
(declare-fun diseqInt (Int Int) Bool)
(declare-fun unS_425 (Int Int) Bool)
(declare-fun isZ_285 (Int) Bool)
(declare-fun isS_285 (Int) Bool)
(assert (forall ((x_34336 Int))
	(unS_425 x_34336 (S_306 x_34336))))
(assert (isZ_285 Z_1247))
(assert (forall ((x_34338 Int))
	(isS_285 (S_306 x_34338))))
(assert (forall ((x_34339 Int))
	(diseqInt Z_1247 (S_306 x_34339))))
(assert (forall ((x_34340 Int))
	(diseqInt (S_306 x_34340) Z_1247)))
(assert (forall ((x_34341 Int) (x_34342 Int))
	(=> (diseqInt x_34341 x_34342) (diseqInt (S_306 x_34341) (S_306 x_34342)))))
(declare-fun add_228 (Int Int Int) Bool)
(declare-fun minus_222 (Int Int Int) Bool)
(declare-fun le_212 (Int Int) Bool)
(declare-fun ge_212 (Int Int) Bool)
(declare-fun lt_226 (Int Int) Bool)
(declare-fun gt_215 (Int Int) Bool)
(declare-fun mult_212 (Int Int Int) Bool)
(declare-fun div_212 (Int Int Int) Bool)
(declare-fun mod_213 (Int Int Int) Bool)
(assert (forall ((y_1349 Int))
	(add_228 y_1349 Z_1247 y_1349)))
(assert (forall ((x_34334 Int) (y_1349 Int) (r_258 Int))
	(=> (add_228 r_258 x_34334 y_1349) (add_228 (S_306 r_258) (S_306 x_34334) y_1349))))
(assert (forall ((y_1349 Int))
	(minus_222 Z_1247 Z_1247 y_1349)))
(assert (forall ((x_34334 Int) (y_1349 Int) (r_258 Int))
	(=> (minus_222 r_258 x_34334 y_1349) (minus_222 (S_306 r_258) (S_306 x_34334) y_1349))))
(assert (forall ((y_1349 Int))
	(le_212 Z_1247 y_1349)))
(assert (forall ((x_34334 Int) (y_1349 Int))
	(=> (le_212 x_34334 y_1349) (le_212 (S_306 x_34334) (S_306 y_1349)))))
(assert (forall ((y_1349 Int))
	(ge_212 y_1349 Z_1247)))
(assert (forall ((x_34334 Int) (y_1349 Int))
	(=> (ge_212 x_34334 y_1349) (ge_212 (S_306 x_34334) (S_306 y_1349)))))
(assert (forall ((y_1349 Int))
	(lt_226 Z_1247 (S_306 y_1349))))
(assert (forall ((x_34334 Int) (y_1349 Int))
	(=> (lt_226 x_34334 y_1349) (lt_226 (S_306 x_34334) (S_306 y_1349)))))
(assert (forall ((y_1349 Int))
	(gt_215 (S_306 y_1349) Z_1247)))
(assert (forall ((x_34334 Int) (y_1349 Int))
	(=> (gt_215 x_34334 y_1349) (gt_215 (S_306 x_34334) (S_306 y_1349)))))
(assert (forall ((y_1349 Int))
	(mult_212 Z_1247 Z_1247 y_1349)))
(assert (forall ((x_34334 Int) (y_1349 Int) (r_258 Int) (z_1248 Int))
	(=> (and (mult_212 r_258 x_34334 y_1349) (add_228 z_1248 r_258 y_1349)) (mult_212 z_1248 (S_306 x_34334) y_1349))))
(assert (forall ((x_34334 Int) (y_1349 Int))
	(=> (lt_226 x_34334 y_1349) (div_212 Z_1247 x_34334 y_1349))))
(assert (forall ((x_34334 Int) (y_1349 Int) (r_258 Int) (z_1248 Int))
	(=> (and (ge_212 x_34334 y_1349) (minus_222 z_1248 x_34334 y_1349) (div_212 r_258 z_1248 y_1349)) (div_212 (S_306 r_258) x_34334 y_1349))))
(assert (forall ((x_34334 Int) (y_1349 Int))
	(=> (lt_226 x_34334 y_1349) (mod_213 x_34334 x_34334 y_1349))))
(assert (forall ((x_34334 Int) (y_1349 Int) (r_258 Int) (z_1248 Int))
	(=> (and (ge_212 x_34334 y_1349) (minus_222 z_1248 x_34334 y_1349) (mod_213 r_258 z_1248 y_1349)) (mod_213 r_258 x_34334 y_1349))))
(declare-datatypes ((Bool_212 0)) (((false_212) (true_212))))
(declare-fun diseqBool_95 (Bool_212 Bool_212) Bool)
(declare-fun isfalse_95 (Bool_212) Bool)
(declare-fun istrue_95 (Bool_212) Bool)
(assert (isfalse_95 false_212))
(assert (istrue_95 true_212))
(assert (diseqBool_95 false_212 true_212))
(assert (diseqBool_95 true_212 false_212))
(declare-fun and_212 (Bool_212 Bool_212 Bool_212) Bool)
(declare-fun or_216 (Bool_212 Bool_212 Bool_212) Bool)
(declare-fun hence_212 (Bool_212 Bool_212 Bool_212) Bool)
(declare-fun not_215 (Bool_212 Bool_212) Bool)
(assert (and_212 false_212 false_212 false_212))
(assert (and_212 false_212 true_212 false_212))
(assert (and_212 false_212 false_212 true_212))
(assert (and_212 true_212 true_212 true_212))
(assert (or_216 false_212 false_212 false_212))
(assert (or_216 true_212 true_212 false_212))
(assert (or_216 true_212 false_212 true_212))
(assert (or_216 true_212 true_212 true_212))
(assert (hence_212 true_212 false_212 false_212))
(assert (hence_212 false_212 true_212 false_212))
(assert (hence_212 true_212 false_212 true_212))
(assert (hence_212 true_212 true_212 true_212))
(assert (not_215 true_212 false_212))
(assert (not_215 false_212 true_212))
(declare-datatypes ((list_146 0)) (((nil_164) (cons_146 (head_292 Int) (tail_292 list_146)))))
(declare-fun diseqlist_146 (list_146 list_146) Bool)
(declare-fun head_293 (Int list_146) Bool)
(declare-fun tail_293 (list_146 list_146) Bool)
(declare-fun isnil_164 (list_146) Bool)
(declare-fun iscons_146 (list_146) Bool)
(assert (forall ((x_34346 Int) (x_34347 list_146))
	(head_293 x_34346 (cons_146 x_34346 x_34347))))
(assert (forall ((x_34346 Int) (x_34347 list_146))
	(tail_293 x_34347 (cons_146 x_34346 x_34347))))
(assert (isnil_164 nil_164))
(assert (forall ((x_34349 Int) (x_34350 list_146))
	(iscons_146 (cons_146 x_34349 x_34350))))
(assert (forall ((x_34351 Int) (x_34352 list_146))
	(diseqlist_146 nil_164 (cons_146 x_34351 x_34352))))
(assert (forall ((x_34353 Int) (x_34354 list_146))
	(diseqlist_146 (cons_146 x_34353 x_34354) nil_164)))
(assert (forall ((x_34355 Int) (x_34356 list_146) (x_34357 Int) (x_34358 list_146))
	(=> (diseqInt x_34355 x_34357) (diseqlist_146 (cons_146 x_34355 x_34356) (cons_146 x_34357 x_34358)))))
(assert (forall ((x_34355 Int) (x_34356 list_146) (x_34357 Int) (x_34358 list_146))
	(=> (diseqlist_146 x_34356 x_34358) (diseqlist_146 (cons_146 x_34355 x_34356) (cons_146 x_34357 x_34358)))))
(declare-datatypes ((Heap_7 0)) (((Node_10 (projNode_60 Heap_7) (projNode_61 Int) (projNode_62 Heap_7)) (Nil_165))))
(declare-fun diseqHeap_7 (Heap_7 Heap_7) Bool)
(declare-fun projNode_63 (Heap_7 Heap_7) Bool)
(declare-fun projNode_64 (Int Heap_7) Bool)
(declare-fun projNode_65 (Heap_7 Heap_7) Bool)
(declare-fun isNode_10 (Heap_7) Bool)
(declare-fun isNil_165 (Heap_7) Bool)
(assert (forall ((x_34359 Heap_7) (x_34360 Int) (x_34361 Heap_7))
	(projNode_63 x_34359 (Node_10 x_34359 x_34360 x_34361))))
(assert (forall ((x_34359 Heap_7) (x_34360 Int) (x_34361 Heap_7))
	(projNode_64 x_34360 (Node_10 x_34359 x_34360 x_34361))))
(assert (forall ((x_34359 Heap_7) (x_34360 Int) (x_34361 Heap_7))
	(projNode_65 x_34361 (Node_10 x_34359 x_34360 x_34361))))
(assert (forall ((x_34364 Heap_7) (x_34365 Int) (x_34366 Heap_7))
	(isNode_10 (Node_10 x_34364 x_34365 x_34366))))
(assert (isNil_165 Nil_165))
(assert (forall ((x_34367 Heap_7) (x_34368 Int) (x_34369 Heap_7))
	(diseqHeap_7 (Node_10 x_34367 x_34368 x_34369) Nil_165)))
(assert (forall ((x_34370 Heap_7) (x_34371 Int) (x_34372 Heap_7))
	(diseqHeap_7 Nil_165 (Node_10 x_34370 x_34371 x_34372))))
(assert (forall ((x_34373 Heap_7) (x_34374 Int) (x_34375 Heap_7) (x_34376 Heap_7) (x_34377 Int) (x_34378 Heap_7))
	(=> (diseqHeap_7 x_34373 x_34376) (diseqHeap_7 (Node_10 x_34373 x_34374 x_34375) (Node_10 x_34376 x_34377 x_34378)))))
(assert (forall ((x_34373 Heap_7) (x_34374 Int) (x_34375 Heap_7) (x_34376 Heap_7) (x_34377 Int) (x_34378 Heap_7))
	(=> (diseqInt x_34374 x_34377) (diseqHeap_7 (Node_10 x_34373 x_34374 x_34375) (Node_10 x_34376 x_34377 x_34378)))))
(assert (forall ((x_34373 Heap_7) (x_34374 Int) (x_34375 Heap_7) (x_34376 Heap_7) (x_34377 Int) (x_34378 Heap_7))
	(=> (diseqHeap_7 x_34375 x_34378) (diseqHeap_7 (Node_10 x_34373 x_34374 x_34375) (Node_10 x_34376 x_34377 x_34378)))))
(declare-fun ordered_12 (Bool_212 list_146) Bool)
(assert (forall ((x_34308 Bool_212) (y_1344 Int) (xs_391 list_146) (y_1343 Int))
	(=> (and (le_212 y_1343 y_1344) (ordered_12 x_34308 (cons_146 y_1344 xs_391))) (ordered_12 x_34308 (cons_146 y_1343 (cons_146 y_1344 xs_391))))))
(assert (forall ((y_1344 Int) (xs_391 list_146) (y_1343 Int))
	(=> (gt_215 y_1343 y_1344) (ordered_12 false_212 (cons_146 y_1343 (cons_146 y_1344 xs_391))))))
(assert (forall ((y_1343 Int))
	(ordered_12 true_212 (cons_146 y_1343 nil_164))))
(assert (ordered_12 true_212 nil_164))
(declare-fun hmerge_7 (Heap_7 Heap_7 Heap_7) Bool)
(assert (forall ((x_34313 Heap_7))
	(hmerge_7 x_34313 Nil_165 x_34313)))
(assert (forall ((z_1246 Heap_7) (x_34299 Int) (x_34300 Heap_7))
	(hmerge_7 (Node_10 z_1246 x_34299 x_34300) (Node_10 z_1246 x_34299 x_34300) Nil_165)))
(assert (forall ((x_34316 Heap_7) (x_34301 Heap_7) (x_34302 Int) (x_34303 Heap_7) (z_1246 Heap_7) (x_34299 Int) (x_34300 Heap_7))
	(=> (and (le_212 x_34299 x_34302) (hmerge_7 x_34316 x_34300 (Node_10 x_34301 x_34302 x_34303))) (hmerge_7 (Node_10 x_34316 x_34299 z_1246) (Node_10 z_1246 x_34299 x_34300) (Node_10 x_34301 x_34302 x_34303)))))
(assert (forall ((x_34318 Heap_7) (x_34301 Heap_7) (x_34302 Int) (x_34303 Heap_7) (z_1246 Heap_7) (x_34299 Int) (x_34300 Heap_7))
	(=> (and (gt_215 x_34299 x_34302) (hmerge_7 x_34318 (Node_10 z_1246 x_34299 x_34300) x_34303)) (hmerge_7 (Node_10 x_34318 x_34302 x_34301) (Node_10 z_1246 x_34299 x_34300) (Node_10 x_34301 x_34302 x_34303)))))
(declare-fun toList_7 (list_146 Heap_7) Bool)
(assert (toList_7 nil_164 Nil_165))
(assert (forall ((x_34321 Heap_7) (x_34322 list_146) (p_231 Heap_7) (y_1346 Int) (q_79 Heap_7))
	(=> (and (hmerge_7 x_34321 p_231 q_79) (toList_7 x_34322 x_34321)) (toList_7 (cons_146 y_1346 x_34322) (Node_10 p_231 y_1346 q_79)))))
(declare-fun hinsert_4 (Heap_7 Int Heap_7) Bool)
(assert (forall ((x_34323 Heap_7) (x_34305 Int) (y_1347 Heap_7))
	(=> (hmerge_7 x_34323 (Node_10 Nil_165 x_34305 Nil_165) y_1347) (hinsert_4 x_34323 x_34305 y_1347))))
(declare-fun toHeap_10 (Heap_7 list_146) Bool)
(assert (forall ((x_34325 Heap_7) (x_34326 Heap_7) (y_1348 Int) (xs_392 list_146))
	(=> (and (toHeap_10 x_34326 xs_392) (hinsert_4 x_34325 y_1348 x_34326)) (toHeap_10 x_34325 (cons_146 y_1348 xs_392)))))
(assert (toHeap_10 Nil_165 nil_164))
(declare-fun hsort_7 (list_146 list_146) Bool)
(assert (forall ((x_34329 list_146) (x_34330 Heap_7) (x_34307 list_146))
	(=> (and (toHeap_10 x_34330 x_34307) (toList_7 x_34329 x_34330)) (hsort_7 x_34329 x_34307))))
(assert (forall ((x_34332 list_146) (xs_393 list_146))
	(=> (and true (hsort_7 x_34332 xs_393) (ordered_12 false_212 x_34332)) false)))
(check-sat)
